language ESSENCE' 1.0

letting vertices be 5
letting colours be 3

letting edges be [[0, 1, 0, 1, 0], 
                  [1, 0, 1, 0, 1],
                  [0, 1, 0, 1, 1], 
                  [1, 0, 1, 0, 0],
                  [0, 1, 1, 0, 0]]

